unsat
(:max-memory         18.04
 :memory             17.91
 :nlsat-conflicts    1
 :nlsat-propagations 3
 :nlsat-stages       1
 :num-allocs         5692
 :rlimit-count       1277
 :time               0.00)
